750
500 500
1 400 500
2 400 98
3 399 539
4 399 6
5 399 925
6 398 371
7 398 610
8 398 897
9 397 11
10 397 85
11 397 469
12 394 145
13 394 452
14 394 488
15 394 224
16 393 417
17 391 338
18 390 683
19 390 948
20 389 553
21 389 111
22 387 110
23 386 249
24 386 251
25 385 392
26 385 448
27 385 512
28 384 109
29 384 368
30 384 903
31 383 304
32 381 357
33 381 566
34 380 199
35 379 470
36 379 179
37 379 624
38 378 560
39 378 430
40 377 683
41 377 532
42 377 882
43 377 953
44 376 759
45 374 129
46 373 187
47 373 48
48 372 55
49 372 651
50 372 891
51 372 66
52 371 999
53 371 320
54 371 395
55 371 600
56 371 269
57 371 217
58 370 370
59 370 273
60 368 131
61 368 202
62 368 661
63 367 888
64 367 352
65 367 654
66 366 83
67 366 147
68 366 165
69 366 74
70 366 662
71 365 695
72 363 444
73 363 80
74 363 357
75 363 684
76 361 651
77 360 849
78 360 356
79 360 959
80 359 395
81 359 534
82 359 528
83 358 77
84 358 375
85 358 886
86 358 696
87 357 243
88 357 854
89 357 379
90 356 717
91 356 947
92 356 409
93 355 838
94 355 553
95 355 506
96 355 730
97 354 230
98 354 466
99 354 471
100 353 395
101 353 292
102 353 208
103 353 538
104 351 63
105 350 876
106 350 417
107 350 962
108 350 154
109 348 583
110 347 847
111 347 583
112 346 117
113 346 464
114 345 797
115 345 584
116 344 171
117 343 233
118 343 504
119 342 855
120 342 435
121 342 837
122 341 555
123 341 301
124 340 458
125 340 282
126 340 918
127 340 862
128 339 50
129 339 137
130 339 820
131 338 267
132 337 988
133 337 957
134 337 476
135 337 643
136 336 678
137 336 650
138 336 968
139 334 250
140 334 749
141 334 714
142 334 124
143 334 439
144 333 280
145 333 975
146 332 24
147 332 845
148 332 192
149 332 969
150 332 763
151 331 45
152 330 781
153 330 868
154 330 78
155 330 864
156 330 743
157 328 184
158 328 466
159 327 648
160 327 228
161 327 180
162 326 636
163 325 867
164 324 247
165 324 408
166 323 896
167 323 502
168 323 340
169 323 307
170 323 418
171 322 976
172 322 284
173 322 517
174 321 535
175 321 597
176 321 59
177 320 283
178 320 952
179 319 348
180 319 847
181 319 217
182 319 524
183 319 207
184 318 908
185 318 111
186 317 221
187 317 436
188 316 616
189 316 246
190 315 858
191 315 922
192 314 979
193 314 773
194 314 475
195 313 312
196 312 788
197 312 323
198 312 859
199 311 320
200 310 699
201 310 226
202 310 211
203 309 630
204 309 605
205 309 239
206 308 619
207 308 901
208 308 128
209 308 575
210 307 754
211 307 28
212 307 206
213 307 271
214 306 9
215 306 283
216 306 955
217 305 534
218 305 715
219 304 987
220 304 292
221 303 582
222 303 162
223 303 809
224 302 427
225 301 776
226 301 803
227 301 885
228 301 997
229 300 745
230 300 194
231 300 652
232 300 907
233 299 603
234 299 541
235 299 400
236 299 164
237 298 632
238 297 539
239 297 80
240 296 530
241 296 974
242 295 743
243 294 454
244 294 689
245 294 286
246 294 729
247 294 167
248 293 960
249 293 343
250 292 209
251 292 143
252 291 133
253 290 486
254 290 401
255 290 988
256 290 333
257 290 685
258 290 356
259 290 82
260 290 17
261 290 678
262 290 169
263 289 149
264 289 69
265 288 803
266 288 315
267 288 368
268 287 894
269 286 969
270 286 796
271 286 85
272 286 943
273 285 395
274 285 774
275 285 820
276 285 133
277 285 137
278 285 508
279 284 640
280 284 848
281 283 421
282 283 344
283 283 632
284 283 127
285 283 901
286 283 44
287 282 500
288 282 148
289 281 514
290 281 712
291 281 777
292 280 20
293 280 517
294 279 60
295 279 483
296 279 770
297 278 415
298 278 202
299 278 115
300 278 208
301 277 740
302 277 285
303 276 843
304 276 443
305 276 30
306 275 717
307 275 381
308 275 112
309 275 152
310 274 840
311 274 69
312 274 292
313 273 360
314 272 459
315 272 353
316 271 580
317 270 864
318 269 340
319 269 995
320 269 224
321 269 792
322 269 880
323 269 288
324 268 66
325 268 233
326 268 24
327 267 283
328 267 722
329 267 465
330 267 501
331 265 409
332 265 267
333 264 761
334 264 531
335 264 861
336 263 455
337 263 724
338 263 505
339 263 934
340 263 467
341 263 221
342 262 452
343 261 466
344 261 647
345 261 181
346 260 445
347 260 677
348 260 493
349 260 565
350 259 666
351 259 518
352 258 434
353 258 233
354 257 89
355 257 827
356 256 625
357 256 539
358 256 658
359 256 284
360 255 677
361 254 167
362 254 144
363 253 46
364 253 858
365 253 78
366 252 757
367 251 535
368 250 893
369 250 83
370 250 864
371 249 320
372 249 751
373 249 727
374 248 52
375 248 784
376 248 623
377 248 840
378 248 575
379 247 190
380 247 567
381 246 168
382 246 663
383 246 965
384 246 60
385 246 268
386 246 326
387 245 822
388 244 791
389 244 832
390 243 551
391 243 954
392 242 600
393 242 284
394 241 851
395 241 184
396 241 959
397 240 537
398 240 618
399 240 794
400 240 574
401 240 957
402 240 527
403 239 658
404 239 573
405 239 827
406 239 392
407 239 718
408 238 984
409 238 94
410 236 393
411 236 496
412 236 331
413 235 244
414 235 974
415 235 430
416 235 975
417 234 237
418 234 956
419 234 788
420 234 172
421 234 598
422 234 224
423 233 427
424 233 280
425 233 729
426 233 53
427 232 127
428 232 154
429 232 426
430 232 763
431 232 573
432 231 627
433 231 506
434 230 235
435 230 286
436 230 85
437 228 501
438 228 237
439 227 546
440 226 702
441 225 737
442 225 674
443 225 673
444 225 219
445 225 370
446 224 765
447 224 702
448 223 382
449 223 445
450 221 37
451 220 869
452 220 828
453 220 701
454 219 126
455 219 613
456 219 695
457 219 585
458 218 695
459 218 32
460 217 780
461 217 905
462 217 119
463 217 839
464 217 210
465 216 814
466 216 690
467 215 654
468 213 267
469 213 205
470 213 160
471 212 328
472 212 917
473 212 411
474 212 187
475 210 709
476 210 108
477 209 731
478 209 391
479 209 494
480 209 985
481 209 116
482 208 288
483 208 269
484 207 769
485 207 474
486 207 599
487 207 530
488 207 545
489 206 591
490 206 837
491 205 259
492 205 321
493 205 462
494 203 756
495 203 199
496 203 801
497 203 24
498 203 437
499 202 996
500 202 365
501 202 651
502 201 835
503 201 653
504 200 143
505 200 781
506 199 936
507 199 897
508 198 56
509 197 149
510 197 884
511 197 630
512 196 61
513 196 768
514 196 481
515 195 741
516 195 68
517 195 67
518 195 20
519 194 968
520 194 225
521 194 938
522 194 366
523 194 174
524 194 663
525 193 122
526 192 839
527 191 668
528 191 513
529 191 431
530 191 517
531 190 626
532 190 845
533 190 696
534 190 453
535 190 791
536 190 333
537 189 16
538 189 908
539 189 89
540 188 208
541 188 623
542 188 678
543 188 144
544 187 185
545 187 658
546 186 912
547 186 664
548 186 701
549 186 357
550 186 578
551 185 610
552 185 925
553 185 75
554 185 177
555 184 493
556 183 517
557 183 563
558 182 149
559 182 66
560 182 826
561 181 746
562 181 206
563 181 702
564 181 569
565 181 9
566 180 884
567 180 856
568 180 714
569 179 377
570 179 776
571 179 101
572 179 469
573 179 408
574 178 456
575 178 165
576 177 998
577 177 342
578 177 682
579 177 919
580 176 912
581 175 913
582 175 914
583 175 843
584 175 241
585 174 864
586 174 992
587 174 230
588 174 267
589 173 817
590 172 852
591 171 440
592 171 148
593 170 564
594 170 248
595 170 344
596 168 901
597 168 106
598 168 351
599 167 407
600 167 841
601 167 266
602 166 427
603 166 982
604 166 356
605 165 927
606 165 114
607 165 311
608 164 827
609 164 744
610 163 968
611 163 981
612 163 768
613 163 866
614 162 246
615 162 103
616 162 953
617 161 360
618 160 803
619 159 167
620 159 495
621 159 590
622 159 286
623 158 901
624 158 305
625 158 35
626 158 473
627 157 376
628 157 370
629 156 953
630 156 728
631 155 481
632 155 0
633 155 469
634 155 565
635 155 230
636 154 883
637 154 693
638 154 697
639 153 157
640 152 183
641 152 728
642 151 9
643 150 478
644 150 502
645 150 828
646 149 589
647 149 917
648 149 691
649 148 749
650 148 170
651 147 773
652 146 865
653 146 354
654 146 504
655 145 959
656 145 599
657 144 690
658 143 430
659 143 504
660 143 275
661 143 387
662 142 756
663 142 111
664 142 809
665 141 579
666 141 149
667 141 853
668 140 822
669 140 358
670 140 769
671 139 850
672 139 403
673 139 819
674 139 175
675 138 134
676 138 183
677 138 2
678 138 480
679 137 472
680 136 710
681 136 27
682 136 181
683 133 174
684 133 437
685 133 712
686 132 202
687 131 505
688 131 329
689 131 686
690 129 110
691 129 827
692 129 715
693 128 566
694 128 74
695 127 618
696 126 273
697 126 178
698 125 510
699 125 591
700 125 781
701 124 138
702 124 838
703 123 737
704 123 792
705 122 258
706 122 766
707 122 505
708 122 577
709 121 57
710 121 331
711 120 250
712 120 717
713 118 967
714 118 591
715 118 399
716 116 343
717 116 24
718 115 640
719 115 299
720 115 276
721 115 814
722 114 567
723 113 448
724 113 125
725 112 185
726 112 140
727 112 734
728 112 66
729 112 140
730 110 580
731 110 316
732 110 31
733 110 419
734 110 722
735 109 125
736 109 44
737 109 352
738 108 270
739 107 794
740 107 497
741 107 44
742 106 90
743 106 253
744 106 624
745 105 984
746 104 825
747 104 921
748 102 891
749 102 560
750 102 230
